(declare-const v0 Bool)
(declare-const v1 Bool)
(declare-const v2 Bool)
(declare-const v3 Bool)
(declare-const v4 Bool)
(assert (edge (or v0 v1 (not v2)) (or v3 (not v0))))
(assert (edge v3 (or (not v3) v4)))
(assert (edge (or v0 (not v2)) v3))
(assert (edge true (or (not v1) v3 v4)))
(assert (edge v1 v0))
(assert (not (edge v2 (not v2))))